
Gurobi 7.5.2 (win64) logging started 03/13/18 23:26:09

Academic license - for non-commercial use only
Warning for adding variables: zero or small (< 1e-13) coefficients, ignored
Optimize a model with 2216 rows, 1552 columns and 109879 nonzeros
Variable types: 33 continuous, 1519 integer (1519 binary)
Coefficient statistics:
  Matrix range     [2e-01, 1e+02]
  Objective range  [1e+00, 5e+06]
  Bounds range     [1e+00, 1e+00]
  RHS range        [1e+00, 5e+01]
Presolve removed 253 rows and 161 columns
Presolve time: 0.57s
Presolved: 1963 rows, 1391 columns, 91103 nonzeros
Variable types: 0 continuous, 1391 integer (1346 binary)

Root relaxation: objective 9.550768e+03, 296 iterations, 0.03 seconds

    Nodes    |    Current Node    |     Objective Bounds      |     Work
 Expl Unexpl |  Obj  Depth IntInf | Incumbent    BestBd   Gap | It/Node Time

     0     0 9550.76756    0    5          - 9550.76756      -     -    0s
H    0     0                    14110.000000 9550.76756  32.3%     -    0s
     0     0 10322.9212    0   15 14110.0000 10322.9212  26.8%     -    0s
H    0     0                    12610.000000 10322.9212  18.1%     -    1s
     0     0 10459.3737    0   22 12610.0000 10459.3737  17.1%     -    1s
     0     0 10512.7692    0   23 12610.0000 10512.7692  16.6%     -    1s
     0     0 10512.7692    0    5 12610.0000 10512.7692  16.6%     -    1s
     0     0 10512.7692    0   15 12610.0000 10512.7692  16.6%     -    1s
H    0     0                    11610.000000 10512.7692  9.45%     -    2s
     0     0 10512.7692    0   23 11610.0000 10512.7692  9.45%     -    2s
     0     0 10526.1276    0   27 11610.0000 10526.1276  9.34%     -    2s
     0     0 10568.3893    0   25 11610.0000 10568.3893  8.97%     -    2s
     0     0 10568.3893    0    6 11610.0000 10568.3893  8.97%     -    2s
     0     0 10568.3893    0    7 11610.0000 10568.3893  8.97%     -    2s
     0     0 10587.1834    0    8 11610.0000 10587.1834  8.81%     -    2s
     0     0 10609.7797    0   12 11610.0000 10609.7797  8.62%     -    2s
     0     0 10609.7797    0    5 11610.0000 10609.7797  8.62%     -    2s
     0     0 10609.7797    0    8 11610.0000 10609.7797  8.62%     -    2s
     0     0 10613.6859    0   11 11610.0000 10613.6859  8.58%     -    2s
     0     0 10703.9844    0   12 11610.0000 10703.9844  7.80%     -    2s
     0     0 10703.9844    0    4 11610.0000 10703.9844  7.80%     -    2s
     0     0 10703.9844    0    6 11610.0000 10703.9844  7.80%     -    2s
     0     0 10703.9844    0    4 11610.0000 10703.9844  7.80%     -    2s
     0     0 10781.2644    0    7 11610.0000 10781.2644  7.14%     -    2s
     0     0 11543.7687    0    5 11610.0000 11543.7687  0.57%     -    2s

Explored 1 nodes (1152 simplex iterations) in 2.50 seconds
Thread count was 8 (of 8 available processors)

Solution count 3: 11610 12610 14110 

Optimal solution found (tolerance 1.00e-04)
Best objective 1.161000000000e+04, best bound 1.161000000000e+04, gap 0.0000%

Gurobi 7.5.2 (win64) logging started 03/13/18 23:27:17

Academic license - for non-commercial use only
Warning for adding variables: zero or small (< 1e-13) coefficients, ignored
Optimize a model with 104 rows, 48 columns and 315 nonzeros
Variable types: 1 continuous, 47 integer (47 binary)
Coefficient statistics:
  Matrix range     [3e-01, 1e+02]
  Objective range  [1e+00, 2e+06]
  Bounds range     [1e+00, 1e+00]
  RHS range        [1e+00, 5e+01]
Presolve removed 39 rows and 0 columns
Presolve time: 0.00s

Explored 0 nodes (0 simplex iterations) in 0.00 seconds
Thread count was 1 (of 8 available processors)

Solution count 0

Model is infeasible
Best objective -, best bound -, gap -

Gurobi 7.5.2 (win64) logging started 03/13/18 23:29:25

Academic license - for non-commercial use only
Warning for adding variables: zero or small (< 1e-13) coefficients, ignored
Optimize a model with 2216 rows, 1552 columns and 109879 nonzeros
Variable types: 33 continuous, 1519 integer (1519 binary)
Coefficient statistics:
  Matrix range     [2e-01, 1e+02]
  Objective range  [1e+00, 5e+06]
  Bounds range     [1e+00, 1e+00]
  RHS range        [1e+00, 5e+01]
Presolve removed 253 rows and 161 columns
Presolve time: 0.61s
Presolved: 1963 rows, 1391 columns, 91103 nonzeros
Variable types: 0 continuous, 1391 integer (1346 binary)

Root relaxation: objective 9.550768e+03, 296 iterations, 0.03 seconds

    Nodes    |    Current Node    |     Objective Bounds      |     Work
 Expl Unexpl |  Obj  Depth IntInf | Incumbent    BestBd   Gap | It/Node Time

     0     0 9550.76756    0    5          - 9550.76756      -     -    0s
H    0     0                    14110.000000 9550.76756  32.3%     -    0s
     0     0 10322.9212    0   15 14110.0000 10322.9212  26.8%     -    1s
H    0     0                    12610.000000 10322.9212  18.1%     -    1s
     0     0 10459.3737    0   22 12610.0000 10459.3737  17.1%     -    1s
     0     0 10512.7692    0   23 12610.0000 10512.7692  16.6%     -    1s
     0     0 10512.7692    0    5 12610.0000 10512.7692  16.6%     -    2s
     0     0 10512.7692    0   15 12610.0000 10512.7692  16.6%     -    2s
H    0     0                    11610.000000 10512.7692  9.45%     -    2s
     0     0 10512.7692    0   23 11610.0000 10512.7692  9.45%     -    2s
     0     0 10526.1276    0   27 11610.0000 10526.1276  9.34%     -    2s
     0     0 10568.3893    0   25 11610.0000 10568.3893  8.97%     -    2s
     0     0 10568.3893    0    6 11610.0000 10568.3893  8.97%     -    2s
     0     0 10568.3893    0    7 11610.0000 10568.3893  8.97%     -    2s
     0     0 10587.1834    0    8 11610.0000 10587.1834  8.81%     -    2s
     0     0 10609.7797    0   12 11610.0000 10609.7797  8.62%     -    2s
     0     0 10609.7797    0    5 11610.0000 10609.7797  8.62%     -    3s
     0     0 10609.7797    0    8 11610.0000 10609.7797  8.62%     -    3s
     0     0 10613.6859    0   11 11610.0000 10613.6859  8.58%     -    3s
     0     0 10703.9844    0   12 11610.0000 10703.9844  7.80%     -    3s
     0     0 10703.9844    0    4 11610.0000 10703.9844  7.80%     -    3s
     0     0 10703.9844    0    6 11610.0000 10703.9844  7.80%     -    3s
     0     0 10703.9844    0    4 11610.0000 10703.9844  7.80%     -    3s
     0     0 10781.2644    0    7 11610.0000 10781.2644  7.14%     -    3s
     0     0 11543.7687    0    5 11610.0000 11543.7687  0.57%     -    3s

Explored 1 nodes (1152 simplex iterations) in 3.04 seconds
Thread count was 8 (of 8 available processors)

Solution count 3: 11610 12610 14110 

Optimal solution found (tolerance 1.00e-04)
Best objective 1.161000000000e+04, best bound 1.161000000000e+04, gap 0.0000%

Gurobi 7.5.2 (win64) logging started 03/13/18 23:31:47

Academic license - for non-commercial use only
Warning for adding variables: zero or small (< 1e-13) coefficients, ignored
Optimize a model with 2216 rows, 1552 columns and 109879 nonzeros
Variable types: 33 continuous, 1519 integer (1519 binary)
Coefficient statistics:
  Matrix range     [2e-01, 1e+02]
  Objective range  [1e+00, 5e+06]
  Bounds range     [1e+00, 1e+00]
  RHS range        [1e+00, 5e+01]
Presolve removed 253 rows and 161 columns
Presolve time: 0.51s
Presolved: 1963 rows, 1391 columns, 91103 nonzeros
Variable types: 0 continuous, 1391 integer (1346 binary)

Root relaxation: objective 9.550768e+03, 296 iterations, 0.03 seconds

    Nodes    |    Current Node    |     Objective Bounds      |     Work
 Expl Unexpl |  Obj  Depth IntInf | Incumbent    BestBd   Gap | It/Node Time

     0     0 9550.76756    0    5          - 9550.76756      -     -    0s
H    0     0                    14110.000000 9550.76756  32.3%     -    0s
     0     0 10322.9212    0   15 14110.0000 10322.9212  26.8%     -    0s
H    0     0                    12610.000000 10322.9212  18.1%     -    0s
     0     0 10459.3737    0   22 12610.0000 10459.3737  17.1%     -    0s
     0     0 10512.7692    0   23 12610.0000 10512.7692  16.6%     -    1s
     0     0 10512.7692    0    5 12610.0000 10512.7692  16.6%     -    1s
     0     0 10512.7692    0   15 12610.0000 10512.7692  16.6%     -    1s
H    0     0                    11610.000000 10512.7692  9.45%     -    1s
     0     0 10512.7692    0   23 11610.0000 10512.7692  9.45%     -    1s
     0     0 10526.1276    0   27 11610.0000 10526.1276  9.34%     -    1s
     0     0 10568.3893    0   25 11610.0000 10568.3893  8.97%     -    1s
     0     0 10568.3893    0    6 11610.0000 10568.3893  8.97%     -    2s
     0     0 10568.3893    0    7 11610.0000 10568.3893  8.97%     -    2s
     0     0 10587.1834    0    8 11610.0000 10587.1834  8.81%     -    2s
     0     0 10609.7797    0   12 11610.0000 10609.7797  8.62%     -    2s
     0     0 10609.7797    0    5 11610.0000 10609.7797  8.62%     -    2s
     0     0 10609.7797    0    8 11610.0000 10609.7797  8.62%     -    2s
     0     0 10613.6859    0   11 11610.0000 10613.6859  8.58%     -    2s
     0     0 10703.9844    0   12 11610.0000 10703.9844  7.80%     -    2s
     0     0 10703.9844    0    4 11610.0000 10703.9844  7.80%     -    2s
     0     0 10703.9844    0    6 11610.0000 10703.9844  7.80%     -    2s
     0     0 10703.9844    0    4 11610.0000 10703.9844  7.80%     -    2s
     0     0 10781.2644    0    7 11610.0000 10781.2644  7.14%     -    2s
     0     0 11543.7687    0    5 11610.0000 11543.7687  0.57%     -    2s

Explored 1 nodes (1152 simplex iterations) in 2.37 seconds
Thread count was 8 (of 8 available processors)

Solution count 3: 11610 12610 14110 

Optimal solution found (tolerance 1.00e-04)
Best objective 1.161000000000e+04, best bound 1.161000000000e+04, gap 0.0000%

Gurobi 7.5.2 (win64) logging started 03/13/18 23:34:12

Academic license - for non-commercial use only
Warning for adding variables: zero or small (< 1e-13) coefficients, ignored
Optimize a model with 2216 rows, 1552 columns and 109879 nonzeros
Variable types: 33 continuous, 1519 integer (1519 binary)
Coefficient statistics:
  Matrix range     [2e-01, 1e+02]
  Objective range  [1e+00, 5e+06]
  Bounds range     [1e+00, 1e+00]
  RHS range        [1e+00, 5e+01]
Presolve removed 253 rows and 161 columns
Presolve time: 0.52s
Presolved: 1963 rows, 1391 columns, 91103 nonzeros
Variable types: 0 continuous, 1391 integer (1346 binary)

Root relaxation: objective 9.550768e+03, 296 iterations, 0.03 seconds

    Nodes    |    Current Node    |     Objective Bounds      |     Work
 Expl Unexpl |  Obj  Depth IntInf | Incumbent    BestBd   Gap | It/Node Time

     0     0 9550.76756    0    5          - 9550.76756      -     -    0s
H    0     0                    14110.000000 9550.76756  32.3%     -    0s
     0     0 10322.9212    0   15 14110.0000 10322.9212  26.8%     -    0s
H    0     0                    12610.000000 10322.9212  18.1%     -    0s
     0     0 10459.3737    0   22 12610.0000 10459.3737  17.1%     -    0s
     0     0 10512.7692    0   23 12610.0000 10512.7692  16.6%     -    1s
     0     0 10512.7692    0    5 12610.0000 10512.7692  16.6%     -    1s
     0     0 10512.7692    0   15 12610.0000 10512.7692  16.6%     -    1s
H    0     0                    11610.000000 10512.7692  9.45%     -    1s
     0     0 10512.7692    0   23 11610.0000 10512.7692  9.45%     -    1s
     0     0 10526.1276    0   27 11610.0000 10526.1276  9.34%     -    1s
     0     0 10568.3893    0   25 11610.0000 10568.3893  8.97%     -    2s
     0     0 10568.3893    0    6 11610.0000 10568.3893  8.97%     -    2s
     0     0 10568.3893    0    7 11610.0000 10568.3893  8.97%     -    2s
     0     0 10587.1834    0    8 11610.0000 10587.1834  8.81%     -    2s
     0     0 10609.7797    0   12 11610.0000 10609.7797  8.62%     -    2s
     0     0 10609.7797    0    5 11610.0000 10609.7797  8.62%     -    2s
     0     0 10609.7797    0    8 11610.0000 10609.7797  8.62%     -    2s
     0     0 10613.6859    0   11 11610.0000 10613.6859  8.58%     -    2s
     0     0 10703.9844    0   12 11610.0000 10703.9844  7.80%     -    2s
     0     0 10703.9844    0    4 11610.0000 10703.9844  7.80%     -    2s
     0     0 10703.9844    0    6 11610.0000 10703.9844  7.80%     -    2s
     0     0 10703.9844    0    4 11610.0000 10703.9844  7.80%     -    2s
     0     0 10781.2644    0    7 11610.0000 10781.2644  7.14%     -    2s
     0     0 11543.7687    0    5 11610.0000 11543.7687  0.57%     -    2s

Explored 1 nodes (1152 simplex iterations) in 2.38 seconds
Thread count was 8 (of 8 available processors)

Solution count 3: 11610 12610 14110 

Optimal solution found (tolerance 1.00e-04)
Best objective 1.161000000000e+04, best bound 1.161000000000e+04, gap 0.0000%

Gurobi 7.5.2 (win64) logging started 03/13/18 23:37:20

Academic license - for non-commercial use only
Warning for adding variables: zero or small (< 1e-13) coefficients, ignored
Optimize a model with 2216 rows, 1552 columns and 109879 nonzeros
Variable types: 33 continuous, 1519 integer (1519 binary)
Coefficient statistics:
  Matrix range     [2e-01, 1e+02]
  Objective range  [1e+00, 5e+06]
  Bounds range     [1e+00, 1e+00]
  RHS range        [1e+00, 5e+01]
Presolve removed 253 rows and 161 columns
Presolve time: 0.52s
Presolved: 1963 rows, 1391 columns, 91103 nonzeros
Variable types: 0 continuous, 1391 integer (1346 binary)

Root relaxation: objective 9.550768e+03, 296 iterations, 0.03 seconds

    Nodes    |    Current Node    |     Objective Bounds      |     Work
 Expl Unexpl |  Obj  Depth IntInf | Incumbent    BestBd   Gap | It/Node Time

     0     0 9550.76756    0    5          - 9550.76756      -     -    0s
H    0     0                    14110.000000 9550.76756  32.3%     -    0s
     0     0 10322.9212    0   15 14110.0000 10322.9212  26.8%     -    0s
H    0     0                    12610.000000 10322.9212  18.1%     -    0s
     0     0 10459.3737    0   22 12610.0000 10459.3737  17.1%     -    1s
     0     0 10512.7692    0   23 12610.0000 10512.7692  16.6%     -    1s
     0     0 10512.7692    0    5 12610.0000 10512.7692  16.6%     -    1s
     0     0 10512.7692    0   15 12610.0000 10512.7692  16.6%     -    1s
H    0     0                    11610.000000 10512.7692  9.45%     -    1s
     0     0 10512.7692    0   23 11610.0000 10512.7692  9.45%     -    1s
     0     0 10526.1276    0   27 11610.0000 10526.1276  9.34%     -    1s
     0     0 10568.3893    0   25 11610.0000 10568.3893  8.97%     -    2s
     0     0 10568.3893    0    6 11610.0000 10568.3893  8.97%     -    2s
     0     0 10568.3893    0    7 11610.0000 10568.3893  8.97%     -    2s
     0     0 10587.1834    0    8 11610.0000 10587.1834  8.81%     -    2s
     0     0 10609.7797    0   12 11610.0000 10609.7797  8.62%     -    2s
     0     0 10609.7797    0    5 11610.0000 10609.7797  8.62%     -    2s
     0     0 10609.7797    0    8 11610.0000 10609.7797  8.62%     -    2s
     0     0 10613.6859    0   11 11610.0000 10613.6859  8.58%     -    2s
     0     0 10703.9844    0   12 11610.0000 10703.9844  7.80%     -    2s
     0     0 10703.9844    0    4 11610.0000 10703.9844  7.80%     -    2s
     0     0 10703.9844    0    6 11610.0000 10703.9844  7.80%     -    2s
     0     0 10703.9844    0    4 11610.0000 10703.9844  7.80%     -    2s
     0     0 10781.2644    0    7 11610.0000 10781.2644  7.14%     -    2s
     0     0 11543.7687    0    5 11610.0000 11543.7687  0.57%     -    2s

Explored 1 nodes (1152 simplex iterations) in 2.38 seconds
Thread count was 8 (of 8 available processors)

Solution count 3: 11610 12610 14110 

Optimal solution found (tolerance 1.00e-04)
Best objective 1.161000000000e+04, best bound 1.161000000000e+04, gap 0.0000%

Gurobi 7.5.2 (win64) logging started 03/13/18 23:40:26

Academic license - for non-commercial use only
Warning for adding variables: zero or small (< 1e-13) coefficients, ignored
Optimize a model with 2216 rows, 1552 columns and 109879 nonzeros
Variable types: 33 continuous, 1519 integer (1519 binary)
Coefficient statistics:
  Matrix range     [2e-01, 1e+02]
  Objective range  [1e+00, 5e+06]
  Bounds range     [1e+00, 1e+00]
  RHS range        [1e+00, 5e+01]
Presolve removed 253 rows and 161 columns
Presolve time: 0.53s
Presolved: 1963 rows, 1391 columns, 91103 nonzeros
Variable types: 0 continuous, 1391 integer (1346 binary)

Root relaxation: objective 9.550768e+03, 296 iterations, 0.02 seconds

    Nodes    |    Current Node    |     Objective Bounds      |     Work
 Expl Unexpl |  Obj  Depth IntInf | Incumbent    BestBd   Gap | It/Node Time

     0     0 9550.76756    0    5          - 9550.76756      -     -    0s
H    0     0                    14110.000000 9550.76756  32.3%     -    0s
     0     0 10322.9212    0   15 14110.0000 10322.9212  26.8%     -    0s
H    0     0                    12610.000000 10322.9212  18.1%     -    0s
     0     0 10459.3737    0   22 12610.0000 10459.3737  17.1%     -    0s
     0     0 10512.7692    0   23 12610.0000 10512.7692  16.6%     -    1s
     0     0 10512.7692    0    5 12610.0000 10512.7692  16.6%     -    1s
     0     0 10512.7692    0   15 12610.0000 10512.7692  16.6%     -    1s
H    0     0                    11610.000000 10512.7692  9.45%     -    1s
     0     0 10512.7692    0   23 11610.0000 10512.7692  9.45%     -    1s
     0     0 10526.1276    0   27 11610.0000 10526.1276  9.34%     -    1s
     0     0 10568.3893    0   25 11610.0000 10568.3893  8.97%     -    2s
     0     0 10568.3893    0    6 11610.0000 10568.3893  8.97%     -    2s
     0     0 10568.3893    0    7 11610.0000 10568.3893  8.97%     -    2s
     0     0 10587.1834    0    8 11610.0000 10587.1834  8.81%     -    2s
     0     0 10609.7797    0   12 11610.0000 10609.7797  8.62%     -    2s
     0     0 10609.7797    0    5 11610.0000 10609.7797  8.62%     -    2s
     0     0 10609.7797    0    8 11610.0000 10609.7797  8.62%     -    2s
     0     0 10613.6859    0   11 11610.0000 10613.6859  8.58%     -    2s
     0     0 10703.9844    0   12 11610.0000 10703.9844  7.80%     -    2s
     0     0 10703.9844    0    4 11610.0000 10703.9844  7.80%     -    2s
     0     0 10703.9844    0    6 11610.0000 10703.9844  7.80%     -    2s
     0     0 10703.9844    0    4 11610.0000 10703.9844  7.80%     -    2s
     0     0 10781.2644    0    7 11610.0000 10781.2644  7.14%     -    2s
     0     0 11543.7687    0    5 11610.0000 11543.7687  0.57%     -    2s

Explored 1 nodes (1152 simplex iterations) in 2.55 seconds
Thread count was 8 (of 8 available processors)

Solution count 3: 11610 12610 14110 

Optimal solution found (tolerance 1.00e-04)
Best objective 1.161000000000e+04, best bound 1.161000000000e+04, gap 0.0000%

Gurobi 7.5.2 (win64) logging started 03/13/18 23:42:10

Academic license - for non-commercial use only
Warning for adding variables: zero or small (< 1e-13) coefficients, ignored
Optimize a model with 2216 rows, 1552 columns and 109879 nonzeros
Variable types: 33 continuous, 1519 integer (1519 binary)
Coefficient statistics:
  Matrix range     [2e-01, 1e+02]
  Objective range  [1e+00, 5e+06]
  Bounds range     [1e+00, 1e+00]
  RHS range        [1e+00, 5e+01]
Presolve removed 253 rows and 161 columns
Presolve time: 0.52s
Presolved: 1963 rows, 1391 columns, 91103 nonzeros
Variable types: 0 continuous, 1391 integer (1346 binary)

Root relaxation: objective 9.550768e+03, 296 iterations, 0.03 seconds

    Nodes    |    Current Node    |     Objective Bounds      |     Work
 Expl Unexpl |  Obj  Depth IntInf | Incumbent    BestBd   Gap | It/Node Time

     0     0 9550.76756    0    5          - 9550.76756      -     -    0s
H    0     0                    14110.000000 9550.76756  32.3%     -    0s
     0     0 10322.9212    0   15 14110.0000 10322.9212  26.8%     -    0s
H    0     0                    12610.000000 10322.9212  18.1%     -    0s
     0     0 10459.3737    0   22 12610.0000 10459.3737  17.1%     -    0s
     0     0 10512.7692    0   23 12610.0000 10512.7692  16.6%     -    1s
     0     0 10512.7692    0    5 12610.0000 10512.7692  16.6%     -    1s
     0     0 10512.7692    0   15 12610.0000 10512.7692  16.6%     -    1s
H    0     0                    11610.000000 10512.7692  9.45%     -    1s
     0     0 10512.7692    0   23 11610.0000 10512.7692  9.45%     -    1s
     0     0 10526.1276    0   27 11610.0000 10526.1276  9.34%     -    1s
     0     0 10568.3893    0   25 11610.0000 10568.3893  8.97%     -    1s
     0     0 10568.3893    0    6 11610.0000 10568.3893  8.97%     -    2s
     0     0 10568.3893    0    7 11610.0000 10568.3893  8.97%     -    2s
     0     0 10587.1834    0    8 11610.0000 10587.1834  8.81%     -    2s
     0     0 10609.7797    0   12 11610.0000 10609.7797  8.62%     -    2s
     0     0 10609.7797    0    5 11610.0000 10609.7797  8.62%     -    2s
     0     0 10609.7797    0    8 11610.0000 10609.7797  8.62%     -    2s
     0     0 10613.6859    0   11 11610.0000 10613.6859  8.58%     -    2s
     0     0 10703.9844    0   12 11610.0000 10703.9844  7.80%     -    2s
     0     0 10703.9844    0    4 11610.0000 10703.9844  7.80%     -    2s
     0     0 10703.9844    0    6 11610.0000 10703.9844  7.80%     -    2s
     0     0 10703.9844    0    4 11610.0000 10703.9844  7.80%     -    2s
     0     0 10781.2644    0    7 11610.0000 10781.2644  7.14%     -    2s
     0     0 11543.7687    0    5 11610.0000 11543.7687  0.57%     -    2s

Explored 1 nodes (1152 simplex iterations) in 2.32 seconds
Thread count was 8 (of 8 available processors)

Solution count 3: 11610 12610 14110 

Optimal solution found (tolerance 1.00e-04)
Best objective 1.161000000000e+04, best bound 1.161000000000e+04, gap 0.0000%

Gurobi 7.5.2 (win64) logging started 03/13/18 23:44:14

Academic license - for non-commercial use only
Warning for adding variables: zero or small (< 1e-13) coefficients, ignored
Optimize a model with 2216 rows, 1552 columns and 109879 nonzeros
Variable types: 33 continuous, 1519 integer (1519 binary)
Coefficient statistics:
  Matrix range     [2e-01, 1e+02]
  Objective range  [1e+00, 5e+06]
  Bounds range     [1e+00, 1e+00]
  RHS range        [1e+00, 5e+01]
Presolve removed 253 rows and 161 columns
Presolve time: 0.53s
Presolved: 1963 rows, 1391 columns, 91103 nonzeros
Variable types: 0 continuous, 1391 integer (1346 binary)

Root relaxation: objective 9.550768e+03, 296 iterations, 0.03 seconds

    Nodes    |    Current Node    |     Objective Bounds      |     Work
 Expl Unexpl |  Obj  Depth IntInf | Incumbent    BestBd   Gap | It/Node Time

     0     0 9550.76756    0    5          - 9550.76756      -     -    0s
H    0     0                    14110.000000 9550.76756  32.3%     -    0s
     0     0 10322.9212    0   15 14110.0000 10322.9212  26.8%     -    0s
H    0     0                    12610.000000 10322.9212  18.1%     -    0s
     0     0 10459.3737    0   22 12610.0000 10459.3737  17.1%     -    0s
     0     0 10512.7692    0   23 12610.0000 10512.7692  16.6%     -    1s
     0     0 10512.7692    0    5 12610.0000 10512.7692  16.6%     -    1s
     0     0 10512.7692    0   15 12610.0000 10512.7692  16.6%     -    1s
H    0     0                    11610.000000 10512.7692  9.45%     -    1s
     0     0 10512.7692    0   23 11610.0000 10512.7692  9.45%     -    1s
     0     0 10526.1276    0   27 11610.0000 10526.1276  9.34%     -    1s
     0     0 10568.3893    0   25 11610.0000 10568.3893  8.97%     -    1s
     0     0 10568.3893    0    6 11610.0000 10568.3893  8.97%     -    2s
     0     0 10568.3893    0    7 11610.0000 10568.3893  8.97%     -    2s
     0     0 10587.1834    0    8 11610.0000 10587.1834  8.81%     -    2s
     0     0 10609.7797    0   12 11610.0000 10609.7797  8.62%     -    2s
     0     0 10609.7797    0    5 11610.0000 10609.7797  8.62%     -    2s
     0     0 10609.7797    0    8 11610.0000 10609.7797  8.62%     -    2s
     0     0 10613.6859    0   11 11610.0000 10613.6859  8.58%     -    2s
     0     0 10703.9844    0   12 11610.0000 10703.9844  7.80%     -    2s
     0     0 10703.9844    0    4 11610.0000 10703.9844  7.80%     -    2s
     0     0 10703.9844    0    6 11610.0000 10703.9844  7.80%     -    2s
     0     0 10703.9844    0    4 11610.0000 10703.9844  7.80%     -    2s
     0     0 10781.2644    0    7 11610.0000 10781.2644  7.14%     -    2s
     0     0 11543.7687    0    5 11610.0000 11543.7687  0.57%     -    2s

Explored 1 nodes (1152 simplex iterations) in 2.32 seconds
Thread count was 8 (of 8 available processors)

Solution count 3: 11610 12610 14110 

Optimal solution found (tolerance 1.00e-04)
Best objective 1.161000000000e+04, best bound 1.161000000000e+04, gap 0.0000%

Gurobi 7.5.2 (win64) logging started 03/13/18 23:48:38

Academic license - for non-commercial use only
Warning for adding variables: zero or small (< 1e-13) coefficients, ignored
Optimize a model with 2216 rows, 1552 columns and 109879 nonzeros
Variable types: 33 continuous, 1519 integer (1519 binary)
Coefficient statistics:
  Matrix range     [2e-01, 1e+02]
  Objective range  [1e+00, 5e+06]
  Bounds range     [1e+00, 1e+00]
  RHS range        [1e+00, 5e+01]
Presolve removed 253 rows and 161 columns
Presolve time: 0.55s
Presolved: 1963 rows, 1391 columns, 91103 nonzeros
Variable types: 0 continuous, 1391 integer (1346 binary)

Root relaxation: objective 9.550768e+03, 296 iterations, 0.03 seconds

    Nodes    |    Current Node    |     Objective Bounds      |     Work
 Expl Unexpl |  Obj  Depth IntInf | Incumbent    BestBd   Gap | It/Node Time

     0     0 9550.76756    0    5          - 9550.76756      -     -    0s
H    0     0                    14110.000000 9550.76756  32.3%     -    0s
     0     0 10322.9212    0   15 14110.0000 10322.9212  26.8%     -    0s
H    0     0                    12610.000000 10322.9212  18.1%     -    0s
     0     0 10459.3737    0   22 12610.0000 10459.3737  17.1%     -    0s
     0     0 10512.7692    0   23 12610.0000 10512.7692  16.6%     -    1s
     0     0 10512.7692    0    5 12610.0000 10512.7692  16.6%     -    1s
     0     0 10512.7692    0   15 12610.0000 10512.7692  16.6%     -    1s
H    0     0                    11610.000000 10512.7692  9.45%     -    1s
     0     0 10512.7692    0   23 11610.0000 10512.7692  9.45%     -    1s
     0     0 10526.1276    0   27 11610.0000 10526.1276  9.34%     -    1s
     0     0 10568.3893    0   25 11610.0000 10568.3893  8.97%     -    2s
     0     0 10568.3893    0    6 11610.0000 10568.3893  8.97%     -    2s
     0     0 10568.3893    0    7 11610.0000 10568.3893  8.97%     -    2s
     0     0 10587.1834    0    8 11610.0000 10587.1834  8.81%     -    2s
     0     0 10609.7797    0   12 11610.0000 10609.7797  8.62%     -    2s
     0     0 10609.7797    0    5 11610.0000 10609.7797  8.62%     -    2s
     0     0 10609.7797    0    8 11610.0000 10609.7797  8.62%     -    2s
     0     0 10613.6859    0   11 11610.0000 10613.6859  8.58%     -    2s
     0     0 10703.9844    0   12 11610.0000 10703.9844  7.80%     -    2s
     0     0 10703.9844    0    4 11610.0000 10703.9844  7.80%     -    2s
     0     0 10703.9844    0    6 11610.0000 10703.9844  7.80%     -    2s
     0     0 10703.9844    0    4 11610.0000 10703.9844  7.80%     -    2s
     0     0 10781.2644    0    7 11610.0000 10781.2644  7.14%     -    2s
     0     0 11543.7687    0    5 11610.0000 11543.7687  0.57%     -    2s

Explored 1 nodes (1152 simplex iterations) in 2.41 seconds
Thread count was 8 (of 8 available processors)

Solution count 3: 11610 12610 14110 

Optimal solution found (tolerance 1.00e-04)
Best objective 1.161000000000e+04, best bound 1.161000000000e+04, gap 0.0000%

Gurobi 7.5.2 (win64) logging started 03/13/18 23:51:46

Academic license - for non-commercial use only
Warning for adding variables: zero or small (< 1e-13) coefficients, ignored
Optimize a model with 2216 rows, 1552 columns and 109879 nonzeros
Variable types: 33 continuous, 1519 integer (1519 binary)
Coefficient statistics:
  Matrix range     [2e-01, 1e+02]
  Objective range  [1e+00, 5e+06]
  Bounds range     [1e+00, 1e+00]
  RHS range        [1e+00, 5e+01]
Presolve removed 253 rows and 161 columns
Presolve time: 0.54s
Presolved: 1963 rows, 1391 columns, 91103 nonzeros
Variable types: 0 continuous, 1391 integer (1346 binary)

Root relaxation: objective 9.550768e+03, 296 iterations, 0.03 seconds

    Nodes    |    Current Node    |     Objective Bounds      |     Work
 Expl Unexpl |  Obj  Depth IntInf | Incumbent    BestBd   Gap | It/Node Time

     0     0 9550.76756    0    5          - 9550.76756      -     -    0s
H    0     0                    14110.000000 9550.76756  32.3%     -    0s
     0     0 10322.9212    0   15 14110.0000 10322.9212  26.8%     -    0s
H    0     0                    12610.000000 10322.9212  18.1%     -    0s
     0     0 10459.3737    0   22 12610.0000 10459.3737  17.1%     -    0s
     0     0 10512.7692    0   23 12610.0000 10512.7692  16.6%     -    1s
     0     0 10512.7692    0    5 12610.0000 10512.7692  16.6%     -    1s
     0     0 10512.7692    0   15 12610.0000 10512.7692  16.6%     -    1s
H    0     0                    11610.000000 10512.7692  9.45%     -    1s
     0     0 10512.7692    0   23 11610.0000 10512.7692  9.45%     -    2s
     0     0 10526.1276    0   27 11610.0000 10526.1276  9.34%     -    2s
     0     0 10568.3893    0   25 11610.0000 10568.3893  8.97%     -    2s
     0     0 10568.3893    0    6 11610.0000 10568.3893  8.97%     -    2s
     0     0 10568.3893    0    7 11610.0000 10568.3893  8.97%     -    2s
     0     0 10587.1834    0    8 11610.0000 10587.1834  8.81%     -    2s
     0     0 10609.7797    0   12 11610.0000 10609.7797  8.62%     -    2s
     0     0 10609.7797    0    5 11610.0000 10609.7797  8.62%     -    2s
     0     0 10609.7797    0    8 11610.0000 10609.7797  8.62%     -    2s
     0     0 10613.6859    0   11 11610.0000 10613.6859  8.58%     -    2s
     0     0 10703.9844    0   12 11610.0000 10703.9844  7.80%     -    2s
     0     0 10703.9844    0    4 11610.0000 10703.9844  7.80%     -    2s
     0     0 10703.9844    0    6 11610.0000 10703.9844  7.80%     -    2s
     0     0 10703.9844    0    4 11610.0000 10703.9844  7.80%     -    2s
     0     0 10781.2644    0    7 11610.0000 10781.2644  7.14%     -    2s
     0     0 11543.7687    0    5 11610.0000 11543.7687  0.57%     -    2s

Explored 1 nodes (1152 simplex iterations) in 2.55 seconds
Thread count was 8 (of 8 available processors)

Solution count 3: 11610 12610 14110 

Optimal solution found (tolerance 1.00e-04)
Best objective 1.161000000000e+04, best bound 1.161000000000e+04, gap 0.0000%

Gurobi 7.5.2 (win64) logging started 03/13/18 23:57:38

Academic license - for non-commercial use only
Warning for adding variables: zero or small (< 1e-13) coefficients, ignored
Optimize a model with 2216 rows, 1552 columns and 109879 nonzeros
Variable types: 33 continuous, 1519 integer (1519 binary)
Coefficient statistics:
  Matrix range     [2e-01, 1e+02]
  Objective range  [1e+00, 5e+06]
  Bounds range     [1e+00, 1e+00]
  RHS range        [1e+00, 5e+01]
Presolve removed 253 rows and 161 columns
Presolve time: 0.52s
Presolved: 1963 rows, 1391 columns, 91103 nonzeros
Variable types: 0 continuous, 1391 integer (1346 binary)

Root relaxation: objective 9.550768e+03, 296 iterations, 0.02 seconds

    Nodes    |    Current Node    |     Objective Bounds      |     Work
 Expl Unexpl |  Obj  Depth IntInf | Incumbent    BestBd   Gap | It/Node Time

     0     0 9550.76756    0    5          - 9550.76756      -     -    0s
H    0     0                    14110.000000 9550.76756  32.3%     -    0s
     0     0 10322.9212    0   15 14110.0000 10322.9212  26.8%     -    0s
H    0     0                    12610.000000 10322.9212  18.1%     -    0s
     0     0 10459.3737    0   22 12610.0000 10459.3737  17.1%     -    0s
     0     0 10512.7692    0   23 12610.0000 10512.7692  16.6%     -    1s
     0     0 10512.7692    0    5 12610.0000 10512.7692  16.6%     -    1s
     0     0 10512.7692    0   15 12610.0000 10512.7692  16.6%     -    1s
H    0     0                    11610.000000 10512.7692  9.45%     -    1s
     0     0 10512.7692    0   23 11610.0000 10512.7692  9.45%     -    1s
     0     0 10526.1276    0   27 11610.0000 10526.1276  9.34%     -    1s
     0     0 10568.3893    0   25 11610.0000 10568.3893  8.97%     -    1s
     0     0 10568.3893    0    6 11610.0000 10568.3893  8.97%     -    2s
     0     0 10568.3893    0    7 11610.0000 10568.3893  8.97%     -    2s
     0     0 10587.1834    0    8 11610.0000 10587.1834  8.81%     -    2s
     0     0 10609.7797    0   12 11610.0000 10609.7797  8.62%     -    2s
     0     0 10609.7797    0    5 11610.0000 10609.7797  8.62%     -    2s
     0     0 10609.7797    0    8 11610.0000 10609.7797  8.62%     -    2s
     0     0 10613.6859    0   11 11610.0000 10613.6859  8.58%     -    2s
     0     0 10703.9844    0   12 11610.0000 10703.9844  7.80%     -    2s
     0     0 10703.9844    0    4 11610.0000 10703.9844  7.80%     -    2s
     0     0 10703.9844    0    6 11610.0000 10703.9844  7.80%     -    2s
     0     0 10703.9844    0    4 11610.0000 10703.9844  7.80%     -    2s
     0     0 10781.2644    0    7 11610.0000 10781.2644  7.14%     -    2s
     0     0 11543.7687    0    5 11610.0000 11543.7687  0.57%     -    2s

Explored 1 nodes (1152 simplex iterations) in 2.32 seconds
Thread count was 8 (of 8 available processors)

Solution count 3: 11610 12610 14110 

Optimal solution found (tolerance 1.00e-04)
Best objective 1.161000000000e+04, best bound 1.161000000000e+04, gap 0.0000%

Gurobi 7.5.2 (win64) logging started 03/14/18 00:03:09

Academic license - for non-commercial use only
Warning for adding variables: zero or small (< 1e-13) coefficients, ignored
Optimize a model with 2216 rows, 1552 columns and 109879 nonzeros
Variable types: 33 continuous, 1519 integer (1519 binary)
Coefficient statistics:
  Matrix range     [2e-01, 1e+02]
  Objective range  [1e+00, 5e+06]
  Bounds range     [1e+00, 1e+00]
  RHS range        [1e+00, 5e+01]
Presolve removed 208 rows and 141 columns
Presolve time: 0.51s
Presolved: 2008 rows, 1411 columns, 92599 nonzeros
Variable types: 0 continuous, 1411 integer (1366 binary)

Root relaxation: objective 9.558090e+03, 306 iterations, 0.03 seconds

    Nodes    |    Current Node    |     Objective Bounds      |     Work
 Expl Unexpl |  Obj  Depth IntInf | Incumbent    BestBd   Gap | It/Node Time

     0     0 9558.09015    0    8          - 9558.09015      -     -    0s
H    0     0                    31190.000000 9558.09015  69.4%     -    0s
     0     0 11214.0379    0   21 31190.0000 11214.0379  64.0%     -    0s
H    0     0                    18730.000000 11214.0379  40.1%     -    0s
     0     0 11228.1456    0   21 18730.0000 11228.1456  40.1%     -    0s
     0     0 11399.3995    0   36 18730.0000 11399.3995  39.1%     -    1s
H    0     0                    14210.000000 11399.3995  19.8%     -    1s
     0     0 11418.3168    0   31 14210.0000 11418.3168  19.6%     -    1s
     0     0 11673.7915    0   26 14210.0000 11673.7915  17.8%     -    1s
     0     0 11673.7915    0    8 14210.0000 11673.7915  17.8%     -    1s
     0     0 11673.7915    0   27 14210.0000 11673.7915  17.8%     -    2s
     0     0 11725.6331    0   20 14210.0000 11725.6331  17.5%     -    2s
     0     0 11736.8575    0   34 14210.0000 11736.8575  17.4%     -    2s
     0     0 11779.0013    0   33 14210.0000 11779.0013  17.1%     -    2s
     0     0 11800.9303    0   38 14210.0000 11800.9303  17.0%     -    2s
     0     0 11808.3269    0   31 14210.0000 11808.3269  16.9%     -    2s
     0     0 11826.3831    0   34 14210.0000 11826.3831  16.8%     -    2s
     0     0 11850.9705    0   42 14210.0000 11850.9705  16.6%     -    2s
     0     0 11876.7890    0   42 14210.0000 11876.7890  16.4%     -    2s
     0     0 11881.7885    0   40 14210.0000 11881.7885  16.4%     -    2s
     0     0 11884.2469    0   47 14210.0000 11884.2469  16.4%     -    2s
     0     0 11884.2469    0   48 14210.0000 11884.2469  16.4%     -    2s
     0     0 11938.2224    0   54 14210.0000 11938.2224  16.0%     -    2s
     0     0 11940.1548    0   54 14210.0000 11940.1548  16.0%     -    2s
     0     0 12192.3854    0   27 14210.0000 12192.3854  14.2%     -    3s
     0     0 12192.3854    0   27 14210.0000 12192.3854  14.2%     -    3s
     0     0 12192.3854    0    8 14210.0000 12192.3854  14.2%     -    3s
     0     0 12192.3854    0   23 14210.0000 12192.3854  14.2%     -    4s
     0     0 12250.0883    0   27 14210.0000 12250.0883  13.8%     -    4s
     0     0 12313.5452    0   32 14210.0000 12313.5452  13.3%     -    4s
     0     0 12356.0090    0   30 14210.0000 12356.0090  13.0%     -    4s
     0     0 12362.6956    0   30 14210.0000 12362.6956  13.0%     -    4s
     0     0 12370.1969    0   30 14210.0000 12370.1969  12.9%     -    4s
     0     0 12506.6100    0   13 14210.0000 12506.6100  12.0%     -    4s
     0     0 12506.6100    0   13 14210.0000 12506.6100  12.0%     -    4s
     0     0 12506.6100    0    2 14210.0000 12506.6100  12.0%     -    5s
     0     0 12506.6100    0   16 14210.0000 12506.6100  12.0%     -    5s
     0     0 12508.3481    0   14 14210.0000 12508.3481  12.0%     -    5s
     0     0 12527.9890    0   15 14210.0000 12527.9890  11.8%     -    5s
     0     0 12527.9890    0   16 14210.0000 12527.9890  11.8%     -    5s
     0     0 12891.2096    0   25 14210.0000 12891.2096  9.28%     -    5s
     0     0 12921.6883    0    6 14210.0000 12921.6883  9.07%     -    5s
     0     0 12944.1106    0   25 14210.0000 12944.1106  8.91%     -    5s
     0     0 12945.4051    0   20 14210.0000 12945.4051  8.90%     -    5s
     0     0 12947.8947    0    2 14210.0000 12947.8947  8.88%     -    5s
     0     0 12947.8947    0    2 14210.0000 12947.8947  8.88%     -    5s
     0     0 12947.8947    0    7 14210.0000 12947.8947  8.88%     -    5s
     0     0 12947.8947    0   15 14210.0000 12947.8947  8.88%     -    5s
     0     0 13039.3853    0   17 14210.0000 13039.3853  8.24%     -    5s
     0     0 13074.4304    0   23 14210.0000 13074.4304  7.99%     -    5s
     0     0 13083.7001    0   23 14210.0000 13083.7001  7.93%     -    5s
     0     0 13083.7068    0   24 14210.0000 13083.7068  7.93%     -    5s
     0     0 13298.4645    0   19 14210.0000 13298.4645  6.41%     -    5s
     0     0 13298.4645    0    2 14210.0000 13298.4645  6.41%     -    5s
     0     0 13298.4645    0   11 14210.0000 13298.4645  6.41%     -    5s
     0     0 13298.4645    0    5 14210.0000 13298.4645  6.41%     -    5s
     0     0 13298.4645    0    6 14210.0000 13298.4645  6.41%     -    5s
     0     0 13298.4645    0    1 14210.0000 13298.4645  6.41%     -    5s
     0     0 13298.4645    0   19 14210.0000 13298.4645  6.41%     -    5s
     0     0 13298.4645    0   21 14210.0000 13298.4645  6.41%     -    5s
     0     0 14035.0000    0   19 14210.0000 14035.0000  1.23%     -    5s
     0     0 14035.0000    0   19 14210.0000 14035.0000  1.23%     -    5s
     0     0 14035.0000    0    2 14210.0000 14035.0000  1.23%     -    5s
     0     0 14035.0000    0    7 14210.0000 14035.0000  1.23%     -    5s
     0     0 14035.0000    0    9 14210.0000 14035.0000  1.23%     -    5s
     0     0 14035.0000    0   12 14210.0000 14035.0000  1.23%     -    5s
     0     0 14035.0000    0   18 14210.0000 14035.0000  1.23%     -    5s
     0     0 14035.0000    0   11 14210.0000 14035.0000  1.23%     -    5s

Explored 1 nodes (2341 simplex iterations) in 5.62 seconds
Thread count was 8 (of 8 available processors)

Solution count 3: 14210 18730 31190 

Optimal solution found (tolerance 1.00e-04)
Best objective 1.421000000000e+04, best bound 1.421000000000e+04, gap 0.0000%
